Set parameter Username
Set parameter LogFile to value "gurobi.log"
Academic license - for non-commercial use only - expires 2024-05-02
Using license file /Users/sissi/gurobi.lic

Gurobi Optimizer version 10.0.1 build v10.0.1rc0 (mac64[arm])
Copyright (c) 2023, Gurobi Optimization, LLC

Read OPB format model from file pbo/p_pbo_0_33060.opb
Reading time = 0.01 seconds
(null): 2001 rows, 1057 columns, 5969 nonzeros

CPU model: Apple M2
Thread count: 8 physical cores, 8 logical processors, using up to 8 threads

Optimize a model with 2001 rows, 1057 columns and 5969 nonzeros
Model fingerprint: 0x80f21672
Variable types: 0 continuous, 1057 integer (1057 binary)
Coefficient statistics:
  Matrix range     [1e+00, 1e+00]
  Objective range  [1e+00, 4e+00]
  Bounds range     [1e+00, 1e+00]
  RHS range        [1e+00, 1e+00]
Found heuristic solution: objective -359.0000000
Presolve removed 929 rows and 473 columns
Presolve time: 0.01s
Presolved: 1072 rows, 584 columns, 3216 nonzeros
Variable types: 0 continuous, 584 integer (584 binary)

Root relaxation: objective -6.430000e+02, 141 iterations, 0.00 seconds (0.00 work units)

    Nodes    |    Current Node    |     Objective Bounds      |     Work
 Expl Unexpl |  Obj  Depth IntInf | Incumbent    BestBd   Gap | It/Node Time

     0     0 -643.00000    0   48 -359.00000 -643.00000  79.1%     -    0s
     0     0 -427.52099    0  577 -359.00000 -427.52099  19.1%     -    0s
H    0     0                    -395.0000000 -427.52099  8.23%     -    0s
     0     0 -407.87602    0  579 -395.00000 -407.87602  3.26%     -    1s
     0     0 -406.92664    0  580 -395.00000 -406.92664  3.02%     -    1s
     0     0 -406.43223    0  579 -395.00000 -406.43223  2.89%     -    1s
     0     0 -406.33484    0  580 -395.00000 -406.33484  2.87%     -    1s
     0     0 -400.18994    0  580 -395.00000 -400.18994  1.31%     -    2s
     0     0 -399.37527    0  580 -395.00000 -399.37527  1.11%     -    2s
     0     0 -398.95805    0  582 -395.00000 -398.95805  1.00%     -    2s
     0     0 -398.80608    0  583 -395.00000 -398.80608  0.96%     -    2s
     0     0 -396.72134    0  582 -395.00000 -396.72134  0.44%     -    2s
     0     0 -396.40805    0  583 -395.00000 -396.40805  0.36%     -    3s
     0     0 -396.24436    0  583 -395.00000 -396.24436  0.32%     -    3s
     0     0     cutoff    0      -395.00000 -395.00000  0.00%     -    3s

Cutting planes:
  MIR: 95
  StrongCG: 1
  RLT: 171

Explored 1 nodes (7238 simplex iterations) in 3.18 seconds (1.36 work units)
Thread count was 8 (of 8 available processors)

Solution count 2: -395 -359 
No other solutions better than -395

Optimal solution found (tolerance 1.00e-04)
Best objective -3.950000000000e+02, best bound -3.950000000000e+02, gap 0.0000%

Wrote result file 'solution/p_0_33060.sol'

